
Gurobi 7.5.2 (linux64) logging started Sat Jun 23 17:05:36 2018

Changed value of parameter LogFile to result/ilp/simNo_3-n_100-m_40-s_4-minVAF_0.05-cov_2000-k_1-fn_0.10-fp_0.0001-na_0.15.ILP.gurobiSolverLog
   Prev: gurobi.log  Default: 
Changed value of parameter TimeLimit to 86400.0
   Prev: 1e+100  Min: 0.0  Max: 1e+100  Default: 1e+100
Optimize a model with 1265601 rows, 330440 columns and 3489120 nonzeros
Variable types: 0 continuous, 330440 integer (330440 binary)
Coefficient statistics:
  Matrix range     [2e-03, 3e+00]
  Objective range  [4e-01, 9e+00]
  Bounds range     [1e+00, 1e+00]
  RHS range        [2e-01, 2e+00]
Found heuristic solution: objective -13525.51011
Presolve removed 333319 rows and 213650 columns (presolve time = 7s) ...
Presolve removed 333819 rows and 213650 columns (presolve time = 11s) ...
Presolve removed 334639 rows and 213650 columns (presolve time = 15s) ...
Presolve removed 334849 rows and 213650 columns (presolve time = 20s) ...
Presolve removed 334849 rows and 213650 columns (presolve time = 26s) ...
Presolve removed 334849 rows and 213650 columns (presolve time = 30s) ...
Presolve removed 334849 rows and 213650 columns (presolve time = 35s) ...
Presolve removed 334849 rows and 213650 columns (presolve time = 41s) ...
Presolve removed 334849 rows and 213650 columns
Presolve time: 44.35s
Presolved: 930752 rows, 116790 columns, 2581188 nonzeros
Variable types: 0 continuous, 116790 integer (116790 binary)
Presolved: 116790 rows, 1047542 columns, 2697978 nonzeros

Presolve removed 116790 rows and 1047542 columns

Root simplex log...

Iteration    Objective       Primal Inf.    Dual Inf.      Time
       0    9.0793957e+00   0.000000e+00   9.191000e+04     54s
    7075   -1.0404938e+02   0.000000e+00   8.348600e+04     55s
   14693   -1.5950488e+02   0.000000e+00   0.000000e+00     60s
   14693   -1.5950488e+02   0.000000e+00   0.000000e+00     62s

Root relaxation: objective -1.595049e+02, 14693 iterations, 14.92 seconds
Total elapsed time = 88.08s
Total elapsed time = 107.02s
Total elapsed time = 124.82s

    Nodes    |    Current Node    |     Objective Bounds      |     Work
 Expl Unexpl |  Obj  Depth IntInf | Incumbent    BestBd   Gap | It/Node Time

     0     0 -159.50488    0  877 -13525.510 -159.50488  98.8%     -  135s
H    0     0                    -201.2987216 -159.50488  20.8%     -  151s
     0     0 -163.60591    0  822 -201.29872 -163.60591  18.7%     -  169s
     0     0 -163.60591    0  817 -201.29872 -163.60591  18.7%     -  191s
     0     0 -169.75747    0  713 -201.29872 -169.75747  15.7%     -  212s
     0     0 -170.54094    0  651 -201.29872 -170.54094  15.3%     -  235s
H    0     0                    -193.0966476 -170.54094  11.7%     -  243s
     0     0 -170.66184    0  801 -193.09665 -170.66184  11.6%     -  252s
     0     0 -170.66184    0  796 -193.09665 -170.66184  11.6%     -  264s
     0     0 -170.66184    0  757 -193.09665 -170.66184  11.6%     -  279s
     0     0 -170.70213    0  785 -193.09665 -170.70213  11.6%     -  294s
     0     0 -171.75426    0  802 -193.09665 -171.75426  11.1%     -  311s
     0     0 -171.76769    0  804 -193.09665 -171.76769  11.0%     -  325s
     0     0 -172.93577    0  821 -193.09665 -172.93577  10.4%     -  344s
     0     0 -173.21665    0  856 -193.09665 -173.21665  10.3%     -  364s
     0     0 -173.22498    0  828 -193.09665 -173.22498  10.3%     -  373s
     0     0 -173.22917    0  832 -193.09665 -173.22917  10.3%     -  382s
     0     0 -173.22917    0  832 -193.09665 -173.22917  10.3%     -  391s
     0     0 -174.19225    0  847 -193.09665 -174.19225  9.79%     -  410s
     0     0 -174.19225    0  847 -193.09665 -174.19225  9.79%     -  429s
     0     0 -174.88377    0  745 -193.09665 -174.88377  9.43%     -  450s
     0     0 -175.45674    0  851 -193.09665 -175.45674  9.14%     -  468s
     0     0 -175.45674    0  832 -193.09665 -175.45674  9.14%     -  479s
     0     0 -175.53959    0  902 -193.09665 -175.53959  9.09%     -  500s
     0     0 -175.83252    0  963 -193.09665 -175.83252  8.94%     -  523s
     0     0 -175.83252    0  965 -193.09665 -175.83252  8.94%     -  532s
     0     0 -177.66777    0  765 -193.09665 -177.66777  7.99%     -  556s
     0     0 -177.66777    0  761 -193.09665 -177.66777  7.99%     -  575s
     0     0 -178.02869    0  768 -193.09665 -178.02869  7.80%     -  597s
     0     0 -178.13526    0  765 -193.09665 -178.13526  7.75%     -  617s
     0     0 -178.13526    0  766 -193.09665 -178.13526  7.75%     -  627s
     0     0 -178.66304    0  674 -193.09665 -178.66304  7.47%     -  648s
     0     0 -178.66304    0  771 -193.09665 -178.66304  7.47%     -  666s
     0     0 -178.90421    0  763 -193.09665 -178.90421  7.35%     -  688s
     0     0 -178.90421    0  766 -193.09665 -178.90421  7.35%     -  705s
     0     0 -180.27122    0  752 -193.09665 -180.27122  6.64%     -  725s
     0     0 -180.27122    0  754 -193.09665 -180.27122  6.64%     -  741s
     0     0 -180.46015    0  832 -193.09665 -180.46015  6.54%     -  762s
     0     0 -181.22813    0  816 -193.09665 -181.22813  6.15%     -  784s
     0     0 -181.22813    0  820 -193.09665 -181.22813  6.15%     -  794s
     0     0 -181.82290    0  684 -193.09665 -181.82290  5.84%     -  813s
     0     0 -181.95984    0  812 -193.09665 -181.95984  5.77%     -  830s
     0     0 -181.95984    0  815 -193.09665 -181.95984  5.77%     -  837s
     0     0 -182.30020    0  857 -193.09665 -182.30020  5.59%     -  856s
     0     0 -182.38277    0  866 -193.09665 -182.38277  5.55%     -  874s
     0     0 -182.44775    0  881 -193.09665 -182.44775  5.51%     -  884s
     0     0 -182.46414    0  877 -193.09665 -182.46414  5.51%     -  895s
     0     0 -182.46414    0  794 -193.09665 -182.46414  5.51%     -  906s
     0     0 -183.80933    0  756 -193.09665 -183.80933  4.81%     -  927s
     0     0 -183.91659    0  867 -193.09665 -183.91659  4.75%     -  944s
     0     0 -183.93286    0  879 -193.09665 -183.93286  4.75%     -  955s
     0     0 -183.93481    0  883 -193.09665 -183.93481  4.74%     -  963s
     0     0 -184.63165    0  866 -193.09665 -184.63165  4.38%     -  984s
     0     0 -184.78053    0  865 -193.09665 -184.78053  4.31%     - 1002s
     0     0 -184.97747    0  699 -193.09665 -184.97747  4.20%     - 1015s
     0     0 -184.99129    0  833 -193.09665 -184.99129  4.20%     - 1028s
     0     0 -184.99129    0  833 -193.09665 -184.99129  4.20%     - 1036s
     0     0 -185.03964    0  711 -193.09665 -185.03964  4.17%     - 1054s
     0     0 -185.21350    0  842 -193.09665 -185.21350  4.08%     - 1068s
     0     0 -185.21350    0  846 -193.09665 -185.21350  4.08%     - 1077s
     0     0 -185.24217    0  875 -193.09665 -185.24217  4.07%     - 1094s
     0     0 -185.44024    0  864 -193.09665 -185.44024  3.97%     - 1110s
     0     0 -185.46587    0  857 -193.09665 -185.46587  3.95%     - 1118s
     0     0 -185.98782    0  828 -193.09665 -185.98782  3.68%     - 1135s
     0     0 -185.98782    0  846 -193.09665 -185.98782  3.68%     - 1148s
     0     0 -185.98782    0  815 -193.09665 -185.98782  3.68%     - 1164s
     0     0 -185.99789    0  864 -193.09665 -185.99789  3.68%     - 1177s
     0     0 -186.00779    0  863 -193.09665 -186.00779  3.67%     - 1186s
     0     0 -186.00779    0  863 -193.09665 -186.00779  3.67%     - 1196s
     0     0 -186.00779    0  815 -193.09665 -186.00779  3.67%     - 1281s
     0     0 -186.00779    0  815 -193.09665 -186.00779  3.67%     - 1305s
     0     2 -186.01803    0  815 -193.09665 -186.01803  3.67%     - 1422s
     1     3 -186.87186    1  629 -193.09665 -186.05199  3.65%   761 1428s
     2     4 -187.21361    2  635 -193.09665 -186.05199  3.65%   424 1431s
     5     7 -189.33736    5  413 -193.09665 -186.05199  3.65%   216 1436s
     7     8 -192.80372    6  243 -193.09665 -186.05199  3.65%   181 1440s
    10     7 -188.46115    1  771 -193.09665 -186.87186  3.22%   271 1451s
    11     8 -189.40595    2  688 -193.09665 -186.87186  3.22%   264 1455s
    15     6     cutoff    4      -193.09665 -186.87186  3.22%   210 1460s
    16     7 -191.35624    2  773 -193.09665 -186.87186  3.22%   217 1467s
    17     8 -191.35632    3  755 -193.09665 -186.87186  3.22%   205 1472s
    18     9 -191.47027    4  737 -193.09665 -186.87186  3.22%   198 1475s
    20    11 -191.83971    6  715 -193.09665 -186.87186  3.22%   189 1483s
    21    12 -192.07990    7  754 -193.09665 -186.87186  3.22%   186 1488s
    22    13 -192.08002    8  713 -193.09665 -186.87186  3.22%   178 1490s
    24    13     cutoff    9      -193.09665 -186.87186  3.22%   166 1496s
    28     9     cutoff    2      -193.09665 -187.22327  3.04%   157 1500s
    30    11 -188.70268    4  243 -193.09665 -187.26909  3.02%   153 1505s
    32    13 -189.67912    6  231 -193.09665 -187.26909  3.02%   148 1510s
    34    13 -191.04613    7  281 -193.09665 -187.26909  3.02%   161 1517s
    36    11     cutoff    5      -193.09665 -187.26909  3.02%   173 1521s
    39    14 -191.04613   10  175 -193.09665 -187.26909  3.02%   161 1525s
    43    12     cutoff    9      -193.09665 -187.26909  3.02%   157 1530s
    45    12     cutoff   12      -193.09665 -187.26909  3.02%   156 1535s
    50    11 -188.31210    4  434 -193.09665 -188.31210  2.48%   144 1541s
    53    12     cutoff    5      -193.09665 -188.31210  2.48%   141 1545s
    55    12 -190.36262    7  349 -193.09665 -188.31210  2.48%   146 1550s
    57    12 -191.04613    8  449 -193.09665 -188.31210  2.48%   146 1556s
    60    15 -192.41314   11  448 -193.09665 -188.31210  2.48%   143 1561s
    65    12     cutoff   13      -193.09665 -188.31210  2.48%   139 1565s
    69    10 -192.41314    6  240 -193.09665 -189.83415  1.69%   138 1571s
    73     8     cutoff    7      -193.09665 -189.83415  1.69%   133 1575s
    76    11 -191.38788    8  336 -193.09665 -190.36262  1.42%   129 1581s
    80    11 -192.41314    9  240 -193.09665 -190.36262  1.42%   124 1585s
    85     9 -192.41314    8  240 -193.09665 -190.47350  1.36%   122 1592s
    89     7     cutoff    9      -193.09665 -190.47350  1.36%   118 1595s
    93     6     cutoff    9      -193.09665 -191.04613  1.06%   116 1600s
    98     3     cutoff    6      -193.09665 -191.71739  0.71%   116 1605s

Cutting planes:
  Gomory: 5
  Zero half: 115

Explored 102 nodes (50568 simplex iterations) in 1609.19 seconds
Thread count was 1 (of 80 available processors)

Solution count 3: -193.097 -201.299 -13525.5 

Optimal solution found (tolerance 1.00e-04)
Best objective -1.930966476404e+02, best bound -1.930966476404e+02, gap 0.0000%
